proyfinal/src/viki/013/experimentInOfficeAgust.take6.output/e791a635-f5c6-446c-a6f3-32140b8981f5.als.dat
{'cnf.clauses': '118081',
 'cnf.totvars': '69608',
 'conflict literals': '44',
 'conflicts': '22',
 'decisions': '6070',
 'memused.mb': '14.72',
 'outcome': 'UNSAT',
 'propagations': '31218',
 'restarts': '1',
 'solver.msecs': 34,
 'task.msecs': 95}
