proyfinal/src/viki/013/experimentInOfficeAgust.take6.output/e791a635-f5c6-446c-a6f3-32140b8981f5.als.out
Reading from standard input... Use '--help' for help.
============================[ Problem Statistics ]=============================
|                                                                             |
|  Number of variables:         69608                                         |
|  Number of clauses:          118081                                         |
|  Parse time:                   0.03 s                                       |
|                                                                             |
============================[ Search Statistics ]==============================
| Conflicts |          ORIGINAL         |          LEARNT          | Progress |
|           |    Vars  Clauses Literals |    Limit  Clauses Lit/Cl |          |
===============================================================================
===============================================================================
restarts              : 1
conflicts             : 22             (630 /sec)
decisions             : 6070           (0.00 % random) (173806 /sec)
propagations          : 31218          (893884 /sec)
conflict literals     : 44             (0.00 % deleted)
Memory used           : 14.72 MB
CPU time              : 0.034924 s

UNSATISFIABLE
